nNurses = 177;
nHours = 26;
minHours = 5;
maxHours = 12;
maxConsec = 9;
maxPresence = 22;
demand = [25, 29, 26, 30, 35, 30, 35, 38, 38, 42, 43, 48, 50, 46, 48, 46, 47, 50, 50, 50, 48, 47, 50, 48, 45, 40];
